45
48
47
54
55
58
60
41
39
38
34
35
10
20
19
31
43
51
65
66
52
53
42
56
71
64
63
73
72
57
61
62
59
40
36
37
18
17
32
33
28
21
25
22
23
24
44
68
67
69
70
50
49
27
26
30
29
5
4
3
74
14
12
11
15
16
13
9
8
6
7
2
1
76
75
46
45